letting np_cars_plus be 67
letting np_classes be 3
letting np_options be 70
letting quantity_range_min be 23
letting quantity_range_delta be 11
letting maxcars_range_min be 3
letting maxcars_range_delta be 5
letting blksize_delta_range_min be 1
letting blksize_delta_range_delta be 1
letting usage_card_min be 70
letting usage_card_delta be 96